
Welcome to IBM(R) ILOG(R) CPLEX(R) Interactive Optimizer 22.1.1.0
  with Simplex, Mixed Integer & Barrier Optimizers
5725-A06 5725-A29 5724-Y48 5724-Y49 5724-Y54 5724-Y55 5655-Y21
Copyright IBM Corp. 1988, 2022.  All Rights Reserved.

Type 'help' for a list of available commands.
Type 'help' followed by a command name for more
information on commands.

CPLEX> Selected objective sense:  MINIMIZE
Selected objective  name:  00000000
Selected RHS        name:  RHS1
Selected bound      name:  BOUND
Problem 'ee.mps' read.
Read time = 0.01 sec. (3.14 ticks)
CPLEX> New value for time limit in seconds: 7200
CPLEX> New value for parallel optimization mode: -1
CPLEX> New value for default parallel thread count: 40
CPLEX> New value for mixed integer optimality gap tolerance: 1e-13
CPLEX> Version identifier: 22.1.1.0 | 2022-11-28 | 9160aff4d
CPXPARAM_Threads                                 40
CPXPARAM_Parallel                                -1
CPXPARAM_TimeLimit                               7200
CPXPARAM_MIP_Tolerances_MIPGap                   1e-13
Found incumbent of value 0.000000 after 0.00 sec. (0.31 ticks)
Tried aggregator 2 times.
MIP Presolve eliminated 180 rows and 2745 columns.
MIP Presolve modified 5862 coefficients.
Aggregator did 713 substitutions.
Reduced MIP has 3623 rows, 7739 columns, and 28643 nonzeros.
Reduced MIP has 7739 binaries, 0 generals, 0 SOSs, and 0 indicators.
Presolve time = 0.06 sec. (68.57 ticks)
Probing time = 0.03 sec. (5.29 ticks)
Tried aggregator 1 time.
Detecting symmetries...
Reduced MIP has 3623 rows, 7739 columns, and 28643 nonzeros.
Reduced MIP has 7739 binaries, 0 generals, 0 SOSs, and 0 indicators.
Presolve time = 0.02 sec. (21.84 ticks)
Probing time = 0.02 sec. (5.10 ticks)
Clique table members: 18551.
MIP emphasis: balance optimality and feasibility.
MIP search method: dynamic search.
Parallel mode: opportunistic, using up to 40 threads.
Root relaxation solution time = 0.09 sec. (74.03 ticks)

        Nodes                                         Cuts/
   Node  Left     Objective  IInf  Best Integer    Best Bound    ItCnt     Gap

*     0+    0                            0.0000  -1.31000e+13              --- 
*     0+    0                      -4.29000e+12  -1.31000e+13           205.36%
*     0+    0                      -4.40000e+12  -1.31000e+13           197.73%
      0     0  -1.30900e+13    26  -4.40000e+12  -1.30900e+13     1929  197.50%
*     0+    0                      -1.30900e+13  -1.30900e+13             0.00%
      0     0  -1.30900e+13   130  -1.30900e+13      Cuts: 47     2234    0.00%
*     0+    0                      -1.30900e+13  -1.30900e+13             0.00%
      0     0  -1.30900e+13   113  -1.30900e+13      Cuts: 78     2668    0.00%

Repeating presolve.
Tried aggregator 2 times.
MIP Presolve eliminated 2087 rows and 4547 columns.
Aggregator did 583 substitutions.
Reduced MIP has 953 rows, 2536 columns, and 8808 nonzeros.
Reduced MIP has 2536 binaries, 0 generals, 0 SOSs, and 0 indicators.
Presolve time = 0.04 sec. (47.29 ticks)
Probing time = 0.00 sec. (2.90 ticks)
Tried aggregator 1 time.
Detecting symmetries...
Reduced MIP has 953 rows, 2536 columns, and 8808 nonzeros.
Reduced MIP has 2536 binaries, 0 generals, 0 SOSs, and 0 indicators.
Presolve time = 0.01 sec. (8.70 ticks)
Represolve time = 0.07 sec. (74.38 ticks)
Probing time = 0.00 sec. (2.86 ticks)
Clique table members: 5703.
MIP emphasis: balance optimality and feasibility.
MIP search method: dynamic search.
Parallel mode: opportunistic, using up to 40 threads.
Root relaxation solution time = 0.05 sec. (29.66 ticks)

        Nodes                                         Cuts/
   Node  Left     Objective  IInf  Best Integer    Best Bound    ItCnt     Gap

*     0+    0                      -1.30900e+13  -1.30900e+13             0.00%
      0     0  -1.30900e+13    66  -1.30900e+13  -1.30900e+13     3538    0.00%
      0     0  -1.30900e+13    59  -1.30900e+13      Cuts: 87     3802    0.00%
*     0+    0                      -1.30900e+13  -1.30900e+13             0.00%
      0     0  -1.30900e+13   136  -1.30900e+13      Cuts: 46     4125    0.00%
      0     0  -1.30900e+13    75  -1.30900e+13      Cuts: 48     4239    0.00%
      0     0  -1.30900e+13    52  -1.30900e+13      Cuts: 33     4324    0.00%
      0     0  -1.30900e+13   149  -1.30900e+13      Cuts: 25     4371    0.00%
*     0+    0                      -1.30900e+13  -1.30900e+13             0.00%
      0     5    infeasible        -1.30900e+13  -1.30900e+13     4408    0.00%
Elapsed time = 1.34 sec. (925.63 ticks, tree = 0.02 MB, solutions = 7)
   2742   219  -1.30900e+13    43  -1.30900e+13  -1.30900e+13    85707    0.00%
   4318    90  -1.30900e+13    36  -1.30900e+13  -1.30900e+13   127797    0.00%

GUB cover cuts applied:  4
Clique cuts applied:  57
Cover cuts applied:  269
Flow cuts applied:  2
Mixed integer rounding cuts applied:  19
Zero-half cuts applied:  19
Lift and project cuts applied:  10
Gomory fractional cuts applied:  3

Root node processing (before b&c):
  Real time             =    1.09 sec. (925.84 ticks)
Parallel b&c, 40 threads:
  Real time             =    0.90 sec. (575.26 ticks)
  Sync time (average)   =    0.21 sec.
  Wait time (average)   =    0.00 sec.
                          ------------
Total (root+branch&cut) =    1.99 sec. (1501.10 ticks)

Solution pool: 10 solutions saved.

MIP - Integer optimal solution:  Objective = -1.3089999989e+13
Solution time =    2.03 sec.  Iterations = 159004  Nodes = 4387
Deterministic time = 1501.14 ticks  (739.53 ticks/sec)

CPLEX> Solution 'p11' written to file 'ee.sol'.
CPLEX> 